
%FILE DATA:	Soccer Computational Problem for MiniZinc Models	%
%AUTHOR:	Jack Wall	%
%CONTACT:  	116397063@umail.ucc.ie			%
%LAST UPDATE:	03/02/2020, 19:05:34						%
%DESCRIPTION: 	84 games played with 48 games left				%


n=12; %number of teams

%Games to play
games=[|4,8|6,8|4,1|1,3|8,12|10,12|7,4|3,1|7,1|7,3|10,4|11,12|5,1|11,6|9,1|4,3|1,5|12,1|10,8|8,1|2,8|7,5|3,8|11,8|6,1|6,9|7,9|3,4|12,4|4,6|12,11|11,9|8,10|6,7|2,11|12,7|3,6|6,11|1,4|12,6|5,9|11,4|9,5|7,11|2,6|3,9|6,2|5,2|];

%Initial points
iPoints=[14,20,15,14,16,19,21,19,21,21,26,16];

%POSITION CONSTRAINTS
% [|teamID, operator, position|...]
% operators index:
%  1 for =  operator
%  2 for >  operator
%  3 for >= operator
%  4 for <  operator
%  5 for <= operator
positionConstraints=[|6,3,1|11,2,1|8,2,2|];